% demand
num_movements = 31;
loading_factor = [1700, 1750, 850, 900, 800, 1000, 1200, 1850, 1000, 1400, 1900, 1350, 1950, 950, 1500, 1950, 1700, 1500, 900, 1500, 1450, 1550, 2000, 1300, 1600, 1800, 800, 1300, 1550, 1250, 800];
pickup_time = [0, 0, 0, 0, 0, 0, 1, 2, 3, 3, 3, 3, 4, 4, 7, 7, 7, 7, 9, 10, 10, 10, 11, 12, 12, 12, 12, 13, 13, 13, 13];
delivery_time = [2, 1, 1, 1, 2, 1, 2, 3, 6, 5, 4, 4, 6, 7, 9, 9, 9, 8, 10, 13, 12, 12, 12, 14, 13, 13, 14, 14, 14, 14, 14];

% transporter definition
total_capacity = 7000;
num_decks = 3;
capacity = [3000, 1000, 3000];

% ways out of decks
num_ways_out = 1;
paths_out = array3d(decks, ways_out, decks, [
% ways out of deck d1
2, 3, 0, 

% ways out of deck d2
3, 0, 0, 

% ways out of deck d3
0, 0, 0,	

]);

